0 80 
1 81 
2 79 
3 75 
4 75 
5 74 
6 73 
7 70 
8 70 
9 69 
10 70 
11 69 
12 67 
13 68 
14 66 
15 62 
16 64 
17 61 
18 63 
19 58 
20 55 
21 53 
22 51 
23 52 
24 50 
25 50 
26 49 
27 45 
28 45 
29 42 
30 42 
31 44 
32 41 
33 43 
34 42 
35 41 
36 41 
37 40 
38 36 
39 37 
40 37 
41 36 
42 33 
43 30 
44 31 
45 30 
46 27 
47 26 
48 25 
49 23 
50 21 
51 20 
52 19 
53 15 
54 13 
55 15 
56 15 
57 16 
58 14 
59 12 
60 12 
61 9 
62 7 
63 12 
64 11 
65 11 
66 12 
67 12 
68 10 
69 7 
70 5 
71 5 
72 4 
73 3 
74 2 
75 2 
76 2 
77 1 
78 2 
79 1 
80 2 
81 2 
82 1 
83 0 
84 0 

